outputs/case_330.model.txt
internal_control_system_executed = True
internal_control_system_established = True
internal_handling_system_executed = True
internal_operation_system_executed = True
internal_handling_system_established = True
internal_operation_system_established = True
internal_operation_executed = True
internal_control_executed = True
internal_handling_established = True
violation_internal_handling = False
violation_internal_control = False
penalty = False
internal_operation_ok = True
internal_control_established = True
internal_handling_executed = True
internal_operation_established = True
internal_handling_ok = True
internal_control_ok = True
violation_internal_operation = False